50
120
100
97
94
93
93
91
89
89
86
85
85
82
81
80
80
80
80
79
77
75
74
72
67
67
63
62
59
58
58
57
54
54
53
51
48
47
46
44
44
41
41
39
36
35
33
32
32
29
28
24
